<?xml version = "1.0" standalone="yes"?>
<!-- This file has been generated by DOcplex version 2.23.222  -->
<CPLEXSolution version="1.0">
 <header
   problemName="CVRP"
   objectiveValue="7711.01"
  />
 <variables>
  <variable name="x_0_1" index="0" value="1.00000"/>
  <variable name="x_0_4" index="3" value="1.00000"/>
  <variable name="x_0_6" index="5" value="1.00000"/>
  <variable name="x_0_10" index="9" value="1.00000"/>
  <variable name="x_0_11" index="10" value="1.00000"/>
  <variable name="x_0_13" index="12" value="1.00000"/>
  <variable name="x_0_14" index="13" value="1.00000"/>
  <variable name="x_0_15" index="14" value="1.00000"/>
  <variable name="x_0_17" index="16" value="1.00000"/>
  <variable name="x_1_0" index="17" value="1.00000"/>
  <variable name="x_2_0" index="34" value="1.00000"/>
  <variable name="x_3_2" index="53" value="1.00000"/>
  <variable name="x_4_3" index="71" value="1.00000"/>
  <variable name="x_5_16" index="100" value="1.00000"/>
  <variable name="x_6_0" index="102" value="1.00000"/>
  <variable name="x_7_0" index="119" value="1.00000"/>
  <variable name="x_8_0" index="136" value="1.00000"/>
  <variable name="x_9_12" index="164" value="1.00000"/>
  <variable name="x_10_8" index="178" value="1.00000"/>
  <variable name="x_11_5" index="192" value="1.00000"/>
  <variable name="x_12_0" index="204" value="1.00000"/>
  <variable name="x_13_0" index="221" value="1.00000"/>
  <variable name="x_14_9" index="247" value="1.00000"/>
  <variable name="x_15_0" index="255" value="1.00000"/>
  <variable name="x_16_7" index="279" value="1.00000"/>
  <variable name="x_17_0" index="289" value="1.00000"/>
  <variable name="u_1" index="306" value="56.00000"/>
  <variable name="u_2" index="307" value="56.00000"/>
  <variable name="u_3" index="308" value="35.00000"/>
  <variable name="u_4" index="309" value="31.00000"/>
  <variable name="u_5" index="310" value="26.00000"/>
  <variable name="u_6" index="311" value="56.00000"/>
  <variable name="u_7" index="312" value="54.00000"/>
  <variable name="u_8" index="313" value="49.00000"/>
  <variable name="u_9" index="314" value="32.00000"/>
  <variable name="u_10" index="315" value="36.00000"/>
  <variable name="u_11" index="316" value="7.00000"/>
  <variable name="u_12" index="317" value="56.00000"/>
  <variable name="u_13" index="318" value="44.00000"/>
  <variable name="u_14" index="319" value="9.00000"/>
  <variable name="u_15" index="320" value="56.00000"/>
  <variable name="u_16" index="321" value="37.00000"/>
  <variable name="u_17" index="322" value="46.00000"/>
 </variables>
</CPLEXSolution>
